
;this file is automatically generated: Fri Jun 01 15:37:38 IST 2018

;declarations generated

(declare-fun S0 () Int)
(declare-fun S1 () Int)
(declare-fun S2 () Int)
(declare-fun T0 () Int)
(declare-fun T1 () Int)
(declare-fun T2 () Int)
(declare-fun T3 () Int)

;formula(s) generated
(assert (and (>= T0 0) (<= T0 3)))
(assert (and (>= T1 0) (<= T1 3)))
(assert (and (>= T2 0) (<= T2 3)))
(assert (and (>= T3 0) (<= T3 3)))
(assert (and (>= S0 0) (<= S0 3)))
(assert (and (>= S1 0) (<= S1 3)))
(assert (and (>= S2 0) (<= S2 3)))
(assert (= T0 0))
(assert (and (and (or (or (not (= T0 0) ) (not (= T1 0) )) (not (= S0 0) )) (or (or (not (= T1 0) ) (not (= T2 0) )) (not (= S1 0) ))) (or (or (not (= T2 0) ) (not (= T3 0) )) (not (= S2 0) ))))
(assert (and (and (or (or (not (= T0 0) ) (not (= T1 0) )) (not (= S0 1) )) (or (or (not (= T1 0) ) (not (= T2 0) )) (not (= S1 1) ))) (or (or (not (= T2 0) ) (not (= T3 0) )) (not (= S2 1) ))))
(assert (and (and (or (or (not (= T0 0) ) (not (= T1 0) )) (not (= S0 2) )) (or (or (not (= T1 0) ) (not (= T2 0) )) (not (= S1 2) ))) (or (or (not (= T2 0) ) (not (= T3 0) )) (not (= S2 2) ))))
(assert (and (and (or (or (not (= T0 0) ) (not (= T1 0) )) (not (= S0 3) )) (or (or (not (= T1 0) ) (not (= T2 0) )) (not (= S1 3) ))) (or (or (not (= T2 0) ) (not (= T3 0) )) (not (= S2 3) ))))
(assert (and (and (or (or (not (= T0 0) ) (not (= T1 1) )) (not (= S0 0) )) (or (or (not (= T1 0) ) (not (= T2 1) )) (not (= S1 0) ))) (or (or (not (= T2 0) ) (not (= T3 1) )) (not (= S2 0) ))))
(assert (and (and (or (or (not (= T0 0) ) (not (= T1 1) )) (not (= S0 2) )) (or (or (not (= T1 0) ) (not (= T2 1) )) (not (= S1 2) ))) (or (or (not (= T2 0) ) (not (= T3 1) )) (not (= S2 2) ))))
(assert (and (and (or (or (not (= T0 0) ) (not (= T1 1) )) (not (= S0 3) )) (or (or (not (= T1 0) ) (not (= T2 1) )) (not (= S1 3) ))) (or (or (not (= T2 0) ) (not (= T3 1) )) (not (= S2 3) ))))
(assert (and (and (or (or (not (= T0 0) ) (not (= T1 2) )) (not (= S0 0) )) (or (or (not (= T1 0) ) (not (= T2 2) )) (not (= S1 0) ))) (or (or (not (= T2 0) ) (not (= T3 2) )) (not (= S2 0) ))))
(assert (and (and (or (or (not (= T0 0) ) (not (= T1 2) )) (not (= S0 1) )) (or (or (not (= T1 0) ) (not (= T2 2) )) (not (= S1 1) ))) (or (or (not (= T2 0) ) (not (= T3 2) )) (not (= S2 1) ))))
(assert (and (and (or (or (not (= T0 0) ) (not (= T1 2) )) (not (= S0 3) )) (or (or (not (= T1 0) ) (not (= T2 2) )) (not (= S1 3) ))) (or (or (not (= T2 0) ) (not (= T3 2) )) (not (= S2 3) ))))
(assert (and (and (or (or (not (= T0 0) ) (not (= T1 3) )) (not (= S0 1) )) (or (or (not (= T1 0) ) (not (= T2 3) )) (not (= S1 1) ))) (or (or (not (= T2 0) ) (not (= T3 3) )) (not (= S2 1) ))))
(assert (and (and (or (or (not (= T0 0) ) (not (= T1 3) )) (not (= S0 2) )) (or (or (not (= T1 0) ) (not (= T2 3) )) (not (= S1 2) ))) (or (or (not (= T2 0) ) (not (= T3 3) )) (not (= S2 2) ))))
(assert (and (and (or (or (not (= T0 1) ) (not (= T1 0) )) (not (= S0 0) )) (or (or (not (= T1 1) ) (not (= T2 0) )) (not (= S1 0) ))) (or (or (not (= T2 1) ) (not (= T3 0) )) (not (= S2 0) ))))
(assert (and (and (or (or (not (= T0 1) ) (not (= T1 0) )) (not (= S0 1) )) (or (or (not (= T1 1) ) (not (= T2 0) )) (not (= S1 1) ))) (or (or (not (= T2 1) ) (not (= T3 0) )) (not (= S2 1) ))))
(assert (and (and (or (or (not (= T0 1) ) (not (= T1 0) )) (not (= S0 2) )) (or (or (not (= T1 1) ) (not (= T2 0) )) (not (= S1 2) ))) (or (or (not (= T2 1) ) (not (= T3 0) )) (not (= S2 2) ))))
(assert (and (and (or (or (not (= T0 1) ) (not (= T1 1) )) (not (= S0 0) )) (or (or (not (= T1 1) ) (not (= T2 1) )) (not (= S1 0) ))) (or (or (not (= T2 1) ) (not (= T3 1) )) (not (= S2 0) ))))
(assert (and (and (or (or (not (= T0 1) ) (not (= T1 1) )) (not (= S0 1) )) (or (or (not (= T1 1) ) (not (= T2 1) )) (not (= S1 1) ))) (or (or (not (= T2 1) ) (not (= T3 1) )) (not (= S2 1) ))))
(assert (and (and (or (or (not (= T0 1) ) (not (= T1 1) )) (not (= S0 2) )) (or (or (not (= T1 1) ) (not (= T2 1) )) (not (= S1 2) ))) (or (or (not (= T2 1) ) (not (= T3 1) )) (not (= S2 2) ))))
(assert (and (and (or (or (not (= T0 1) ) (not (= T1 1) )) (not (= S0 3) )) (or (or (not (= T1 1) ) (not (= T2 1) )) (not (= S1 3) ))) (or (or (not (= T2 1) ) (not (= T3 1) )) (not (= S2 3) ))))
(assert (and (and (or (or (not (= T0 1) ) (not (= T1 2) )) (not (= S0 0) )) (or (or (not (= T1 1) ) (not (= T2 2) )) (not (= S1 0) ))) (or (or (not (= T2 1) ) (not (= T3 2) )) (not (= S2 0) ))))
(assert (and (and (or (or (not (= T0 1) ) (not (= T1 2) )) (not (= S0 1) )) (or (or (not (= T1 1) ) (not (= T2 2) )) (not (= S1 1) ))) (or (or (not (= T2 1) ) (not (= T3 2) )) (not (= S2 1) ))))
(assert (and (and (or (or (not (= T0 1) ) (not (= T1 2) )) (not (= S0 2) )) (or (or (not (= T1 1) ) (not (= T2 2) )) (not (= S1 2) ))) (or (or (not (= T2 1) ) (not (= T3 2) )) (not (= S2 2) ))))
(assert (and (and (or (or (not (= T0 1) ) (not (= T1 2) )) (not (= S0 3) )) (or (or (not (= T1 1) ) (not (= T2 2) )) (not (= S1 3) ))) (or (or (not (= T2 1) ) (not (= T3 2) )) (not (= S2 3) ))))
(assert (and (and (or (or (not (= T0 1) ) (not (= T1 3) )) (not (= S0 3) )) (or (or (not (= T1 1) ) (not (= T2 3) )) (not (= S1 3) ))) (or (or (not (= T2 1) ) (not (= T3 3) )) (not (= S2 3) ))))
(assert (and (and (or (or (not (= T0 2) ) (not (= T1 0) )) (not (= S0 0) )) (or (or (not (= T1 2) ) (not (= T2 0) )) (not (= S1 0) ))) (or (or (not (= T2 2) ) (not (= T3 0) )) (not (= S2 0) ))))
(assert (and (and (or (or (not (= T0 2) ) (not (= T1 0) )) (not (= S0 1) )) (or (or (not (= T1 2) ) (not (= T2 0) )) (not (= S1 1) ))) (or (or (not (= T2 2) ) (not (= T3 0) )) (not (= S2 1) ))))
(assert (and (and (or (or (not (= T0 2) ) (not (= T1 0) )) (not (= S0 2) )) (or (or (not (= T1 2) ) (not (= T2 0) )) (not (= S1 2) ))) (or (or (not (= T2 2) ) (not (= T3 0) )) (not (= S2 2) ))))
(assert (and (and (or (or (not (= T0 2) ) (not (= T1 0) )) (not (= S0 3) )) (or (or (not (= T1 2) ) (not (= T2 0) )) (not (= S1 3) ))) (or (or (not (= T2 2) ) (not (= T3 0) )) (not (= S2 3) ))))
(assert (and (and (or (or (not (= T0 2) ) (not (= T1 1) )) (not (= S0 0) )) (or (or (not (= T1 2) ) (not (= T2 1) )) (not (= S1 0) ))) (or (or (not (= T2 2) ) (not (= T3 1) )) (not (= S2 0) ))))
(assert (and (and (or (or (not (= T0 2) ) (not (= T1 1) )) (not (= S0 1) )) (or (or (not (= T1 2) ) (not (= T2 1) )) (not (= S1 1) ))) (or (or (not (= T2 2) ) (not (= T3 1) )) (not (= S2 1) ))))
(assert (and (and (or (or (not (= T0 2) ) (not (= T1 1) )) (not (= S0 2) )) (or (or (not (= T1 2) ) (not (= T2 1) )) (not (= S1 2) ))) (or (or (not (= T2 2) ) (not (= T3 1) )) (not (= S2 2) ))))
(assert (and (and (or (or (not (= T0 2) ) (not (= T1 1) )) (not (= S0 3) )) (or (or (not (= T1 2) ) (not (= T2 1) )) (not (= S1 3) ))) (or (or (not (= T2 2) ) (not (= T3 1) )) (not (= S2 3) ))))
(assert (and (and (or (or (not (= T0 2) ) (not (= T1 2) )) (not (= S0 0) )) (or (or (not (= T1 2) ) (not (= T2 2) )) (not (= S1 0) ))) (or (or (not (= T2 2) ) (not (= T3 2) )) (not (= S2 0) ))))
(assert (and (and (or (or (not (= T0 2) ) (not (= T1 2) )) (not (= S0 1) )) (or (or (not (= T1 2) ) (not (= T2 2) )) (not (= S1 1) ))) (or (or (not (= T2 2) ) (not (= T3 2) )) (not (= S2 1) ))))
(assert (and (and (or (or (not (= T0 2) ) (not (= T1 2) )) (not (= S0 2) )) (or (or (not (= T1 2) ) (not (= T2 2) )) (not (= S1 2) ))) (or (or (not (= T2 2) ) (not (= T3 2) )) (not (= S2 2) ))))
(assert (and (and (or (or (not (= T0 2) ) (not (= T1 2) )) (not (= S0 3) )) (or (or (not (= T1 2) ) (not (= T2 2) )) (not (= S1 3) ))) (or (or (not (= T2 2) ) (not (= T3 2) )) (not (= S2 3) ))))
(assert (and (and (or (or (not (= T0 3) ) (not (= T1 0) )) (not (= S0 0) )) (or (or (not (= T1 3) ) (not (= T2 0) )) (not (= S1 0) ))) (or (or (not (= T2 3) ) (not (= T3 0) )) (not (= S2 0) ))))
(assert (and (and (or (or (not (= T0 3) ) (not (= T1 0) )) (not (= S0 1) )) (or (or (not (= T1 3) ) (not (= T2 0) )) (not (= S1 1) ))) (or (or (not (= T2 3) ) (not (= T3 0) )) (not (= S2 1) ))))
(assert (and (and (or (or (not (= T0 3) ) (not (= T1 0) )) (not (= S0 2) )) (or (or (not (= T1 3) ) (not (= T2 0) )) (not (= S1 2) ))) (or (or (not (= T2 3) ) (not (= T3 0) )) (not (= S2 2) ))))
(assert (and (and (or (or (not (= T0 3) ) (not (= T1 0) )) (not (= S0 3) )) (or (or (not (= T1 3) ) (not (= T2 0) )) (not (= S1 3) ))) (or (or (not (= T2 3) ) (not (= T3 0) )) (not (= S2 3) ))))
(assert (and (and (or (or (not (= T0 3) ) (not (= T1 1) )) (not (= S0 0) )) (or (or (not (= T1 3) ) (not (= T2 1) )) (not (= S1 0) ))) (or (or (not (= T2 3) ) (not (= T3 1) )) (not (= S2 0) ))))
(assert (and (and (or (or (not (= T0 3) ) (not (= T1 1) )) (not (= S0 1) )) (or (or (not (= T1 3) ) (not (= T2 1) )) (not (= S1 1) ))) (or (or (not (= T2 3) ) (not (= T3 1) )) (not (= S2 1) ))))
(assert (and (and (or (or (not (= T0 3) ) (not (= T1 1) )) (not (= S0 2) )) (or (or (not (= T1 3) ) (not (= T2 1) )) (not (= S1 2) ))) (or (or (not (= T2 3) ) (not (= T3 1) )) (not (= S2 2) ))))
(assert (and (and (or (or (not (= T0 3) ) (not (= T1 1) )) (not (= S0 3) )) (or (or (not (= T1 3) ) (not (= T2 1) )) (not (= S1 3) ))) (or (or (not (= T2 3) ) (not (= T3 1) )) (not (= S2 3) ))))
(assert (and (and (or (or (not (= T0 3) ) (not (= T1 2) )) (not (= S0 0) )) (or (or (not (= T1 3) ) (not (= T2 2) )) (not (= S1 0) ))) (or (or (not (= T2 3) ) (not (= T3 2) )) (not (= S2 0) ))))
(assert (and (and (or (or (not (= T0 3) ) (not (= T1 2) )) (not (= S0 1) )) (or (or (not (= T1 3) ) (not (= T2 2) )) (not (= S1 1) ))) (or (or (not (= T2 3) ) (not (= T3 2) )) (not (= S2 1) ))))
(assert (and (and (or (or (not (= T0 3) ) (not (= T1 2) )) (not (= S0 2) )) (or (or (not (= T1 3) ) (not (= T2 2) )) (not (= S1 2) ))) (or (or (not (= T2 3) ) (not (= T3 2) )) (not (= S2 2) ))))
(assert (and (and (or (or (not (= T0 3) ) (not (= T1 2) )) (not (= S0 3) )) (or (or (not (= T1 3) ) (not (= T2 2) )) (not (= S1 3) ))) (or (or (not (= T2 3) ) (not (= T3 2) )) (not (= S2 3) ))))
(assert (= T3 2))

 ;end of formula 
(assert (not (and (and (and (and (and (and (= S0 1) (= S1 3)) (= S2 2)) (= T0 0)) (= T1 1)) (= T2 0)) (= T3 2)) ))
